(define-fun-rec
  v5
  ((x Int) (y Int) (z Int)) Int (ite (<= x 0) z (v5 (- x 1) y z)))
(define-fun
  j5
  ((x Int)) Int x)
(define-fun
  h7
  ((x Int)) Int (+ 2 x))
(define-fun
  h6
  ((x Int) (y Int)) Int y)
(define-fun
  h4
  ((x Int) (y Int)) Int y)
(define-fun
  g5
  ((x Int) (y Int)) Int y)
(define-fun
  g3
  ((x Int)) Int x)
(define-fun
  g2
  ((x Int) (y Int)) Int y)
(define-fun
  g0
  ((x Int)) Int x)
(define-fun
  f7
  ((x Int)) Int (* (+ 2 x) (- (* (* x x) x) x)))
(define-fun-rec
  u7
  ((x Int) (y Int)) Int (ite (<= x 0) y (f7 (u7 (- x 1) y))))
(define-fun
  v7
  ((x Int)) Int (u7 1 (h7 x)))
(define-fun
  f6
  ((x Int)) Int (div (v7 x) (* 2 (* 2 (+ 2 (+ 2 2))))))
(define-fun-rec
  u6
  ((x Int) (y Int)) Int (ite (<= x 0) y (f6 (u6 (- x 1) y))))
(define-fun
  v6
  ((x Int) (y Int)) Int (u6 1 y))
(define-fun
  f5
  ((x Int) (y Int)) Int (* (v6 x y) (* x x)))
(define-fun-rec
  u5
  ((x Int) (y Int) (z Int)) Int
  (ite (<= x 0) y (f5 (u5 (- x 1) y z) (v5 (- x 1) y z))))
(define-fun
  w5
  ((x Int)) Int (u5 2 1 x))
(define-fun-rec
  u4
  ((x Int) (y Int)) Int (ite (<= x 0) y (w5 (u4 (- x 1) y))))
(define-fun
  v4
  ((x Int) (y Int)) Int (u4 1 y))
(define-fun
  f3
  ((x Int) (y Int)) Int (+ (v4 x y) x))
(define-fun-rec
  u3
  ((x Int) (y Int)) Int (ite (<= x 0) y (f3 (u3 (- x 1) y) x)))
(define-fun
  v3
  ((x Int)) Int (u3 x 1))
(define-fun
  f2
  ((x Int) (y Int)) Int (+ (div (* 2 (+ x x)) y) x))
(define-fun-rec
  u2
  ((x Int) (y Int)) Int (ite (<= x 0) y (f2 (u2 (- x 1) y) x)))
(define-fun
  v2
  ((x Int) (y Int)) Int (u2 y 1))
(define-fun
  f1
  ((x Int)) Int (* (* x x) x))
(define-fun-rec
  u1
  ((x Int) (y Int)) Int (ite (<= x 0) y (f1 (u1 (- x 1) y))))
(define-fun
  v1
  ((x Int) (y Int)) Int (u1 1 (v2 x y)))
(define-fun
  f0
  ((x Int) (y Int)) Int (+ (v1 x y) x))
(define-fun-rec
  u0
  ((x Int) (y Int)) Int (ite (<= x 0) y (f0 (u0 (- x 1) y) x)))
(define-fun
  v0
  ((x Int)) Int (u0 x 1))
(assert-not
  (forall ((c Int)) (or (not (>= c 0)) (= (v0 c) (v3 c)))))
